1750.29
0 41 62 47 29 58 0
0 65 25 55 44 63 73 2 0
0 22 1 40 72 0
0 31 10 35 13 52 0
0 16 49 24 3 9 0
0 66 59 14 71 0
0 23 56 21 36 60 57 0
0 74 64 33 6 0
0 54 20 4 67 0
0 45 27 19 46 26 0
0 11 38 39 12 0
0 5 70 50 18 32 0
0 15 37 43 51 75 8 0
0 30 48 53 7 34 0
0 69 61 28 42 68 17 0
